c Lingeling SAT Solver
c 
c Version ala b02aa1a04343558c4252b5f4a723be021964f652
c 
c Copyright (C) 2010-2012 Armin Biere JKU Linz Austria.
c All rights reserved.
c 
c released Sat Oct 13 14:05:26 CEST 2012
c compiled Sat Feb 16 02:48:12 EST 2013
c 
c gcc (Debian 4.4.5-8) 4.4.5
c -Wall -O3 -DNLGLOG -DNDEBUG -DNCHKSOL -DNLGLPICOSAT 
c Linux greencar2 2.6.32-5-amd64 x86_64
c 
c reading input file p49.cnf
c no embedded options
c found 'p cnf 234817 727139' header
c read 234817 variables, 727139 clauses, 1513107 literals in 0.0 seconds
c
c feature vars 234817
c feature lits.total 1513107
c feature lits.pos 806252
c feature lits.neg 706855
c feature clauses.total 727139
c feature clauses.unit 87563
c feature clauses.bin 512384
c feature clauses.trn 125792
c feature clauses.lrg 1400
c feature cog.val.min 1
c feature cog.val.avg 104617
c feature cog.val.max 225741
c feature cog.var.min 1
c feature cog.var.avg 117409
c feature cog.var.max 234816
c
c
c --abstime=0
c --acts=2
c --actavgmax=120
c --actstdmin=20
c --actstdmax=80
c --agile=23
c --bias=2
c --block=1
c --blkrtc=0
c --blkclslim=2000
c --blkocclim=2000
c --blkmaxeff=2147483647
c --blkmineff=10000000
c --blkreleff=20
c --card=0
c --cce=3
c --ccemaxeff=100000000
c --ccemineff=5000000
c --ccereleff=3
c --check=0
c --cgrclsr=1
c --cgrmaxority=20
c --cgrmaxeff=8000000
c --cgrmineff=200000
c --cgreleff=1
c --cgrexteq=1
c --cgrextand=1
c --cgrextunits=1
c --cgrextite=1
c --cgrextxor=1
c --cliff=1
c --cliffreleff=8
c --cliffmineff=10000000
c --cliffmaxeff=100000000
c --compact=0
c --decompose=1
c --defragint=10000000
c --defragfree=50
c --elim=1
c --elmrtc=0
c --elmblk=1
c --elmclslim=1000
c --elmocclim=1000
c --elmaxeff=100000000
c --elmineff=5000000
c --elmreleff=10
c --sleeponabort=0
c --exitonabort=0
c --flipping=1
c --flipint=2
c --flipdur=50
c --fliptop=1
c --force=0
c --gauss=1
c --gaussextrall=1
c --gaussmaxor=20
c --gaussexptrn=1
c --gaussmaxeff=50000000
c --gaussmineff=2000000
c --gaussreleff=2
c --gluescale=2
c --gluekeep=0
c --inprocessing=1
c --cintinc=10000
c --irrlim=20
c --lift=1
c --lftmaxeff=20000000
c --lftmineff=500000
c --lftreleff=6
c --lhbr=1
c --lkhd=1
c --clim=-1
c --mocint=1000
c --move=2
c --log=-1
c --otfs=1
c --phase=0
c --phaseneginit=0
c --plain=0
c --probe=1
c --prbasicmaxeff=100000000
c --prbasicmineff=1000000
c --prbasicreleff=10
c --prbasic=1
c --prbasicroundlim=9
c --queuemergelim=10000
c --queuefactor=833
c --queueinc=20
c --rmincpen=4
c --seed=0
c --smallirr=90
c --smallve=1
c --smallvevars=12
c --randec=1
c --randecint=1000
c --redfixed=0
c --redlbound=0
c --redlexpfac=10
c --redldoutfac=0
c --redloutinc=10000
c --redlinit=1000
c --redlinc=1000
c --redinoutinc=100
c --redlmininc=10
c --redlmaxinc=200
c --redlminrel=10
c --redlmaxrel=300
c --redlminabs=500
c --redlmaxabs=1000000
c --reduce=1
c --restart=2
c --restartint=5
c --rstinoutinc=110
c --simplify=1
c --simpdelay=100
c --simpen=4
c --sizepen=1000000
c --sizemaxpen=3
c --sortlits=0
c --syncint=111111
c --termint=122222
c --ternres=1
c --ternresrtc=0
c --trnrmineff=4000000
c --trnrmaxeff=40000000
c --trnreleff=10
c --transred=1
c --trdmineff=100000
c --trdmaxeff=2000000
c --trdreleff=10
c --unhide=1
c --unhdextstamp=1
c --unhdhbr=0
c --unhdmaxeff=20000000
c --unhdmineff=1000000
c --unhdreleff=4
c --unhdlnpr=3
c --unhdroundlim=5
c --verbose=1
c --witness=1
c [limits] no conflict limit
c [limits] simplification delayed by 100 to 100 conflicts
c 
c  seconds         irredundant          redundant clauses agility   height
c          variables clauses conflicts large binary ternary    glue         MB
c 
c *    0.0  129392   541710         0       0      0     0  65  0.0   0.0   42
c [cut-width] 180540, max 280829, min4 118760 at 75%, min10 35345 at 89%
c [decision-order] bias 1, old 1
c [queue-schedule-all-variables]
c s    0.0  129392   541710         0       0      0     0  65  0.0   0.0   42
c [simplification-1] limit hit at 103 conflicts
c [simplification-1] simplification penalty of 4
c [ternres-1] limit 4000000 with penalty 0 = 0 + 0
c [ternres-1] all 129392 free variables schedulable
c [ternres-1] 0 ternary resolvents (0 bin, 0 trn)
c [ternres-1] 23753 variables remain 18% (105639 retained)
c [gauss-1] limit 2000000 penalty 0 = 0 + 0
c [gauss-1] extracted 166401 xors of average arity 2.0
c [gauss-1] connected 332803 occurrences of 115425 variables (average 2.9)
c [gauss-1] limit 2000000 penalty 0 = 0 + 0
c d    1.4   59534   269476       103     103      0     0  62  4.9 287.2   21
c [gauss-1] exported 0 unary, 2 binary and 0 ternary equations
c G    1.4   59534   269476       103     103      0     0  62  4.9 287.2   21
c [basicprobe-1] limit 1000000 penalty 0 = 0 + 0
c [basicprobe-1-0] 4464 probes remain 7% after last round
c [basicprobe-1-0] removed 0 variables, found 7031 hbrs
c p    1.7   59534   269476       103     103   7031     0  62  4.9 287.2   26
c [cgrclsr-1] limit 200000 penalty 0 = 0 + 0
c [cgrclsr-1] all 59534 free variables schedulable
c [cgrclsr-1] fully completed congruence closure
c [lift-1] limit 500000 with penalty 0 = 0 + 0
c [lift-1] using 59534 probes 100%
c [lift-1] 59497 variables remain 100% (37 retained)
c [cliff-1] limit of 10000000 steps penalty 0 = 0 + 0
c [cliff-1] failed 1, lifted 0
c K    2.6   59531   269476       103     103  18758     0  62  4.9 287.2   26
c [unhide-1] limit 1000000 with penalty 0 = 0 + 0
c [unhide-1-1] 0 units, 1 failed, 21325 tauts, 0 hbrs, 48 literals
c u    2.9   59530   248136       103     103  18758     0  62  4.9 287.2   26
c [transred-1] limit 100000 with penalty 0 = 0 + 0
c t    2.9   59530   248136       103     103  18750     0  62  4.9 287.2   26
c [block-1] scheduling all variables this time
c [block-1] scheduled 59530 variables 100%
c [block-1] limit of 10000000 steps penalty 0 = 0 + 0
c [block-1] fully completed blocked clause elimination
c [block-1] transition to [ all 0 rem 0 ] state
c [block-1] eliminated 4800 blocked clauses
c k    3.2   59530   243331       103     103  18750  4800  62  4.9 287.2   21
c [cce-1] scheduling all variables this time
c [cce-1] limit of 10000000 steps penalty 0 = 0 + 0
c [cce-1] incomplete covered clause elimination 53841 not tried 90%
c [cce-1] transition to [ all 1 rem 1 ] state
c [cce-1] eliminated 60 covered clauses
c E    3.9   59528   243271       103     103  31163  4800  62  4.9 287.2   22
c [elim-1] scheduling all variables this time
c [elim-1] scheduled 59528 variables 100%
c [elim-1] limit of 5000000 steps penalty 0 = 0 + 0
c [elim-1] incomplete variable elimination 44554 not tried 75%
c [elim-1] transition to [ all 1 rem 1 ] state
c [elim-1] eliminated 6511 = 11% variables out of 59528
c e    5.5   53017   239392       103      56  11477   663  62  4.9 287.2   21
c [phase-1] phase bias: 1165 positive 11%, 9049 negative 89%
c [simplification-1] removed 76375 variables 59%
c [simplification-1] limit increments divided by 30
c [simplification-1] arithmetic increase of conflict limit interval by 333
c [simplification-1] new irredundant limit 2372607
c [simplification-1] new conflict limit 436
c [simplification-1] simplification penalty reduced to 3
c R    5.7   53017   239392       411     359  11477   668  20 11.0 511.6   26
c [simplification-2] limit hit at 436 conflicts
c [simplification-2] simplification penalty of 3
c [ternres-2] limit 2000000 with penalty 1 = 1 + 0
c [ternres-2] 9730 schedulable variables 18%
c [ternres-2] 2 ternary resolvents (0 bin, 2 trn)
c [ternres-2] fully completed ternary resolution
c T    5.8   53017   239392       436     382  11477   672  18 10.6 427.3   26
c [gauss-2] limit 2000000 penalty 0 = 0 + 0
c [gauss-2] extracted 1005 xors of average arity 3.0
c [gauss-2] connected 3015 occurrences of 1773 variables (average 1.7)
c [gauss-2] limit 2000000 penalty 0 = 0 + 0
c [gauss-2] fully completed
c [gauss-2] exported 0 unary, 0 binary and 0 ternary equations
c G    6.0   53017   239392       436     382  11477   672  18 10.6 427.3   21
c [basicprobe-2] limit 500000 penalty 1 = 1 + 0
c [basicprobe-2-0] 4506 probes remain 8% after last round
c [basicprobe-2-0] removed 0 variables, found 454 hbrs
c p    6.2   53017   239392       436     382  11931   672  18 10.6 427.3   26
c [cgrclsr-2] limit 100000 penalty 1 = 1 + 0
c [cgrclsr-2] all 53017 free variables schedulable
c [cgrclsr-2] fully completed congruence closure
c [lift-2] limit 250000 with penalty 1 = 1 + 0
c [lift-2] using 52982 probes 100%
c [lift-2] 52952 variables remain 100% (65 retained)
c [cliff-2] limit of 10000000 steps penalty 0 = 0 + 0
c [cliff-2] failed 0, lifted 0
c [unhide-2] limit 1000000 with penalty 0 = 0 + 0
c [unhide-2-2] 0 units, 0 failed, 2297 tauts, 0 hbrs, 986 literals
c u    7.3   53017   239388       436     382  11335   672  18 10.6 427.3   26
c [transred-3] limit 100000 with penalty 0 = 0 + 0
c t    7.3   53017   239386       436     382  11330   672  18 10.6 427.3   26
c [block-2] scheduling all variables this time
c [block-2] scheduled 53017 variables 100%
c [block-2] limit of 10000000 steps penalty 0 = 0 + 0
c [block-2] fully completed blocked clause elimination
c [block-2] transition to [ all 0 rem 0 ] state
c [block-2] eliminated 0 blocked clauses
c [cce-2] 50081 variables 94% will be scheduled this time
c [cce-2] limit of 10000000 steps penalty 0 = 0 + 0
c [cce-2] 49550 variables 93% remain to be tried next time
c [cce-2] transition to [ all 0 rem 1 ] state
c [cce-2] eliminated 309 covered clauses
c E    8.1   53017   239077       436     382  11645   672  18 10.6 427.3   21
c [elim-2] 44509 variables 84% will be scheduled this time
c [elim-2] scheduled 44509 variables 84%
c [elim-2] limit of 5000000 steps penalty 0 = 0 + 0
c [elim-2] 34622 variables 65% remain to be tried next time
c [elim-2] transition to [ all 0 rem 1 ] state
c [elim-2] eliminated 893 = 2% variables out of 53017
c e    9.7   52124   238718       436     369   9150   672  18 10.6 427.3   21
c [phase-2] phase bias: 43 positive 86%, 7 negative 14%
c [simplification-2] removed 893 variables 1%
c [simplification-2] no reduction of limit increments
c [simplification-2] arithmetic increase of conflict limit interval by 10000
c [simplification-2] new irredundant limit 2372607
c [simplification-2] new conflict limit 10769
c [simplification-2] simplification penalty reduced to 2
c R   10.2   52124   238718       986     841   9169   723   7  7.9 254.7   26
c -   10.4   52124   238718      1188     504   9178   748   4  7.3 223.8   26
c R   11.0   52124   238718      2275    1494   9202   808   4  8.3 208.5   26
c -   12.5   52124   238718      4111    1553   9289   992   4  7.2 242.0   26
c 
c  seconds         irredundant          redundant clauses agility   height
c          variables clauses conflicts large binary ternary    glue         MB
c 
c R   12.8   52124   238718      5191    2611   9294  1009   5 10.2 249.2   27
c -   14.8   52124   238718      7934    2502   9385  1233   3  9.2 248.1   27
c 1   16.0   52124   238718      9404    3781   9436  1356   4  8.8 248.8   27
c 
c  seconds         irredundant          redundant clauses agility   height
c          variables clauses conflicts large binary ternary    glue         MB
c 
c blkd: 2 bces, 4800 removed, 1421725 resolutions, 3960310 steps
c blkd: 4800 blocking literals 1%, 0 pure
c cces: 2 cces, 361 eliminated, 361 ate 100%, 0 abce 0%
c cces: 12438 probed, 1 lifted, 2 failed
c clff: 2 cliffs, 0 lifted, 1 failed
c clff: 9605 decisions, 20006910 steps
c clls: 1 sat, 0 simp, 0 freeze, 0 melt
c clls: 2240246 add, 0 assume,, 0 deref, 0 failed
c clls: 0 cassume, 0 mosat
c coll: 13 gcs, 0 rescored clauses
c cgrs: 2 count, 300000 esteps, 69880 csteps
c cgrs: 0 eqs, 0 units
c cgrs: 0 matched (0 ands 0%, 0 xors 0%, 0 ites 0%)
c cgrs: 0 simplified (0 ands 0%, 0 xors 0%, 0 ites 0%)
c cgrs: 2091 extracted (1766 ands 84%, 325 xors 16%, 0 ites 0%)
c dcps: 3 decompositions, 69858 equivalent 30%
c decs: 179623 decision, 180 random 0.100%
c decs: 41898 flipped 23.326% (in 64 phases)
c elms: 2 elims, 7404 eliminated 3%
c elms: 7404 small 100%, 0 large 0%
c elms: 24963 tried small, 7404 succeeded 30%, 17559 failed 70%
c elms: 0 subsumed, 0 strengthened, 0 blocked
c elms: 313942 copies, 219565 resolutions, 648576 ipos
c elms: 0 subchks, 0 strchks
c frcs: 0 computed, 29.7 - 70.3 average min-cut range
c gaus: 2 extractions, 167406 extracted, 2.0 size, 3 max
c gaus: exported 0 units, 2 binary and 0 ternary equations
c gaus: 0 gc, 8000034 steps, 4000017 extr 50%, 2405973 elim 30%
c glue: 8.8 avg, 2.8 scaled avg
c glue: 0 maxredglue=15 (0%)
c lift: 2 phases, 402 probed (134 level1 33%, 268 level2 67%)
c lift: 0 units, 0 equivalences, 0 implications
c hbrs: 33280 hbrs = 33280 trn 100% + 0 lrg 0%, 0 sub 0%
c lrnd: 9311 clauses, 5528 uips 59%, 31.0 length, 8.8 glue
c ints: 508 luby (66960 steps), 0 inout (0 steps)
c mins: 288185 learned lits, 5% minimized
c move: moved 5161, 361 binary 7%, 4800 ternary 93%
c otfs: str 441 dyn (367 red, 74 irr) 93 drv 21%, 348 rst 79%
c otfs: sub 3 dyn (3 red, 0 irr)
c phas: 2 computed, 10412 set, 1208 pos (12%), 9204 neg (88%)
c prbs: 2 basic, 1794 probed, 0 failed, 0 lifted
c prps: 26758719 props, 112 props/dec
c prps: 75% srch, 25% simp, 0% lkhd
c psns: 1009855 searches, 175646 hits, 17% hit rate
c queu: 38082 new, 15223 del, 120 maximum priority
c queu: 22843 merged, 21553 collected, 4 gcs
c queu: 9752 deprioritized, 24.1 lines on average
c reds: 3 count, 0 reset, 3 acts 100%, 0 exp 0%
c reds: 3 arithmetic 100%, 3 double 100%
c rmbd: 4 removed, 0 red 0%
c rsts: 453 restarts 89%, 54 skipped 11%
c rsts: 64 kept 14.1% average 48.0%
c simp: 2 count (0 ilim 0%, 0 plim 0%, 2 clim 100%)
c trnr: 2 count, 0 bin, 2 trn, 4706423 steps
c tops: 105431 fixed 45%, 0 iterations
c trds: 4 transitive reductions, 15 removed, 0 failed
c trds: 211 nodes, 270 edges, 200863 steps
c unhd: 2 count, 2 rounds, 2524982 steps
c unhd: 0 non-trivial sccs of average size 0.0
c unhd: 0 units, 0 bin, 0 trn, 0 lrg
c unhd: 1 failed, 1 stamp, 0 lits, 0 bin, 0 trn, 0 lrg
c unhd: 23622 tauts, 0 bin 0%, 0 trn 0%, 0 lrg 0%
c unhd: 23622 tauts, 23622 stamp 100%, 2297 red 10%
c unhd: 0 hbrs, 0 trn 0%, 0 lrg 0%, 0 red 0%
c unhd: 1034 strd, 0 bin 0%, 0 trn 0%, 1034 lrg 100%, 1034 red 100%
c vars: 52124 remaining 22% and 182693 removed 78% out of 234817
c vars: 105431 fixed 45%, 7404 eliminated 3%, 69858 equivalent 30%
c vsts: 130850273 visits, 77% srch, 23% simp, 0% lkhd
c vsts: 5.0 search visits per propagation 10664.5 per conflict
c wchs: 10633523 pushed, 4365878 enlarged, 22 defrags
c 
c scaledglue  added       reduced       forcing      resolved     conflicts
c 
c all      8352 100      4490 100     54201 100     18658 100      1513 100
c 
c  0          0   0         0   0         0   0         0   0         0   0 
c  1         59   1        24   1       731   1       117   1         4   0 
c  2       2927  35      1559  35     22042  41      5733  31       387  26 
c  3       2956  35<     1367  30<    23042  43<     7165  38<      606  40<
c  4       1496  18       908  20      6223  11      3622  19       350  23 
c  5        462   6       312   7      1150   2       990   5        87   6 
c  6        205   2       147   3       493   1       481   3        41   3 
c  7         73   1        49   1       162   0       165   1         9   1 
c  8         38   0        28   1        77   0        80   0         2   0 
c  9         41   0        24   1        99   0       102   1         8   1 
c 10         63   1        47   1       133   0       139   1        12   1 
c 11         30   0        23   1        47   0        61   0         7   0 
c 12          0   0         0   0         0   0         0   0         0   0 
c 13          2   0         2   0         2   0         3   0         0   0 
c 14          0   0         0   0         0   0         0   0         0   0 
c 15          0   0         0   0         0   0         0   0         0   0 
c 
c avg             3.2           3.3           2.8           3.2           3.3
c std             1.4           1.6           1.0           1.4           1.4
c 
c 179623 decisions, 9404 conflicts, 588.3 conflicts/sec
c 26758719 propagations, 1.7 megaprops/sec
c 16.0 seconds, 49.4 MB
c 
c    0.880   6% analysis
c    0.536   3% block
c    0.056   0% bump
c    0.000   0% card
c    1.332   8% cce
c    1.180   7% cliff
c    0.028   0% cutwidth
c    0.288   2% decide
c    0.000   0% force
c    0.992   6% gc
c    0.336   2% cgrclsr
c    0.556   3% decomp
c    0.244   2% defrag
c    3.152  20% elim
c    1.488   9% gauss
c    0.320   2% lift
c    0.080   1% mincls
c    0.080   1% phase
c    0.164   1% probe
c    0.020   0% reduce
c    0.404   3% restart
c    0.136   1% ternres
c    0.016   0% transred
c    0.420   3% unhide
c ==================================
c    0.036   0% preprocessing     0%
c    9.613  60% inprocessing    100%
c ==================================
c    9.649  60% simplifying
c    0.000   0% lookahead
c    6.320  40% search
c ==================================
c   15.985 100% all
c
s SATISFIABLE
